27
64
513
680
636
1017
752
782
563
1149
2444
2560
973
3110
4354
6503
957
2823
4659
6445
7888
7916
7221
9502
4896
1084
7424
13120
8228
16130
13820
12795
14389
19289
13541
19274
17386
1554
14547
19785
5987
13060
11731
28685
25698
20019
25572
10635
36104
25322
32025
33559
35460
10058
22687
20370
3736
58135
9776
35125
21025
24798
44443
64463
62838
45827
28665
55741
30979
32069
53911
37632
83949
84574
7817
12640
21107
99167
32541
96937
82764
107183
15675
98270
69175
103460
128075
82373
62998
55905
96550
4408
129620
56529
119296
128049
149611
1580
159445
4815
